results/mps/FMS_05_makespan_heurTrue.mps
NAME JobShopModel
ROWS
 N  OBJ
 G  c0      
 E  c1      
 E  c2      
 E  c3      
 E  c4      
 E  c5      
 E  c6      
 L  c7      
 L  c8      
 L  c9      
 L  c10     
 L  c11     
 L  c12     
 L  c13     
 L  c14     
 L  c15     
 L  c16     
 L  c17     
 L  c18     
 G  c19     
 G  c20     
 G  c21     
 G  c22     
 G  c23     
 G  c24     
 G  c25     
 G  c26     
 G  c27     
 G  c28     
 G  c29     
 G  c30     
 G  c31     
 G  c32     
 G  c33     
 G  c34     
 G  c35     
 G  c36     
 G  c37     
 G  c38     
 G  c39     
 G  c40     
 G  c41     
 G  c42     
 G  c43     
 G  c44     
 G  c45     
 G  c46     
 G  c47     
 G  c48     
 G  c49     
 G  c50     
 G  c51     
 G  c52     
 G  c53     
 G  c54     
 G  c55     
 G  c56     
 G  c57     
 G  c58     
 G  c59     
 G  c60     
 G  c61     
 G  c62     
 G  c63     
 G  c64     
 G  c65     
 G  c66     
 G  c67     
 G  c68     
 G  c69     
 G  c70     
 G  c71     
 G  c72     
 G  c73     
 G  c74     
 G  c75     
 G  c76     
 G  c77     
 G  c78     
 G  c79     
 G  c80     
 G  c81     
 G  c82     
 G  c83     
 G  c84     
 G  c85     
 G  c86     
 G  c87     
 G  c88     
 G  c89     
 G  c90     
 G  c91     
 G  c92     
 G  c93     
 G  c94     
 G  c95     
 G  c96     
 G  c97     
 G  c98     
 G  c99     
 G  c100    
 G  c101    
 G  c102    
 G  c103    
 G  c104    
 G  c105    
 G  c106    
 G  c107    
 G  c108    
 G  c109    
 G  c110    
 G  c111    
COLUMNS
    MARKER    'MARKER'                 'INTORG'
    y[0,0,0]  c0        -64
    y[0,0,0]  c1        1
    y[0,0,0]  c7        -10000000
    y[0,0,0]  c22       -10000000
    y[0,0,0]  c23       -10000000
    y[0,0,0]  c26       -10000000
    y[0,0,0]  c27       -10000000
    y[0,0,0]  c30       -10000000
    y[0,0,0]  c31       -10000000
    y[0,0,0]  c34       -10000000
    y[0,0,0]  c35       -10000000
    y[0,0,0]  c38       -10000000
    y[0,0,0]  c39       -10000000
    y[0,0,0]  c42       -10000000
    y[0,0,0]  c43       -10000000
    y[0,0,1]  c0        -71
    y[0,0,1]  c1        1
    y[0,0,1]  c8        -10000000
    y[0,0,1]  c24       -10000000
    y[0,0,1]  c25       -10000000
    y[0,0,1]  c28       -10000000
    y[0,0,1]  c29       -10000000
    y[0,0,1]  c32       -10000000
    y[0,0,1]  c33       -10000000
    y[0,0,1]  c36       -10000000
    y[0,0,1]  c37       -10000000
    y[0,0,1]  c40       -10000000
    y[0,0,1]  c41       -10000000
    y[0,0,1]  c44       -10000000
    y[0,0,1]  c45       -10000000
    y[0,1,0]  c2        1
    y[0,1,0]  c9        -10000000
    y[0,1,0]  c19       -43
    y[0,1,0]  c22       -10000000
    y[0,1,0]  c23       -10000000
    y[0,1,0]  c42       -10000000
    y[0,1,0]  c43       -10000000
    y[0,1,0]  c46       -10000000
    y[0,1,0]  c47       -10000000
    y[0,1,0]  c50       -10000000
    y[0,1,0]  c51       -10000000
    y[0,1,0]  c54       -10000000
    y[0,1,0]  c55       -10000000
    y[0,1,0]  c58       -10000000
    y[0,1,0]  c59       -10000000
    y[0,1,0]  c96       -480
    y[0,1,1]  c2        1
    y[0,1,1]  c10       -10000000
    y[0,1,1]  c19       -36
    y[0,1,1]  c24       -10000000
    y[0,1,1]  c25       -10000000
    y[0,1,1]  c44       -10000000
    y[0,1,1]  c45       -10000000
    y[0,1,1]  c48       -10000000
    y[0,1,1]  c49       -10000000
    y[0,1,1]  c52       -10000000
    y[0,1,1]  c53       -10000000
    y[0,1,1]  c56       -10000000
    y[0,1,1]  c57       -10000000
    y[0,1,1]  c60       -10000000
    y[0,1,1]  c61       -10000000
    y[0,1,1]  c98       -480
    y[1,0,0]  c0        -36
    y[1,0,0]  c3        1
    y[1,0,0]  c11       -10000000
    y[1,0,0]  c26       -10000000
    y[1,0,0]  c27       -10000000
    y[1,0,0]  c46       -10000000
    y[1,0,0]  c47       -10000000
    y[1,0,0]  c62       -10000000
    y[1,0,0]  c63       -10000000
    y[1,0,0]  c66       -10000000
    y[1,0,0]  c67       -10000000
    y[1,0,0]  c70       -10000000
    y[1,0,0]  c71       -10000000
    y[1,0,0]  c74       -10000000
    y[1,0,0]  c75       -10000000
    y[1,0,1]  c0        -21
    y[1,0,1]  c3        1
    y[1,0,1]  c12       -10000000
    y[1,0,1]  c28       -10000000
    y[1,0,1]  c29       -10000000
    y[1,0,1]  c48       -10000000
    y[1,0,1]  c49       -10000000
    y[1,0,1]  c64       -10000000
    y[1,0,1]  c65       -10000000
    y[1,0,1]  c68       -10000000
    y[1,0,1]  c69       -10000000
    y[1,0,1]  c72       -10000000
    y[1,0,1]  c73       -10000000
    y[1,0,1]  c76       -10000000
    y[1,0,1]  c77       -10000000
    y[1,1,0]  c4        1
    y[1,1,0]  c13       -10000000
    y[1,1,0]  c20       -34
    y[1,1,0]  c30       -10000000
    y[1,1,0]  c31       -10000000
    y[1,1,0]  c50       -10000000
    y[1,1,0]  c51       -10000000
    y[1,1,0]  c62       -10000000
    y[1,1,0]  c63       -10000000
    y[1,1,0]  c74       -10000000
    y[1,1,0]  c75       -10000000
    y[1,1,0]  c78       -10000000
    y[1,1,0]  c79       -10000000
    y[1,1,0]  c82       -10000000
    y[1,1,0]  c83       -10000000
    y[1,1,0]  c102      -480
    y[1,1,1]  c4        1
    y[1,1,1]  c14       -10000000
    y[1,1,1]  c20       -53
    y[1,1,1]  c32       -10000000
    y[1,1,1]  c33       -10000000
    y[1,1,1]  c52       -10000000
    y[1,1,1]  c53       -10000000
    y[1,1,1]  c64       -10000000
    y[1,1,1]  c65       -10000000
    y[1,1,1]  c76       -10000000
    y[1,1,1]  c77       -10000000
    y[1,1,1]  c80       -10000000
    y[1,1,1]  c81       -10000000
    y[1,1,1]  c84       -10000000
    y[1,1,1]  c85       -10000000
    y[1,1,1]  c104      -480
    y[2,0,0]  c0        -43
    y[2,0,0]  c5        1
    y[2,0,0]  c15       -10000000
    y[2,0,0]  c34       -10000000
    y[2,0,0]  c35       -10000000
    y[2,0,0]  c54       -10000000
    y[2,0,0]  c55       -10000000
    y[2,0,0]  c66       -10000000
    y[2,0,0]  c67       -10000000
    y[2,0,0]  c78       -10000000
    y[2,0,0]  c79       -10000000
    y[2,0,0]  c86       -10000000
    y[2,0,0]  c87       -10000000
    y[2,0,0]  c90       -10000000
    y[2,0,0]  c91       -10000000
    y[2,0,1]  c0        -37
    y[2,0,1]  c5        1
    y[2,0,1]  c16       -10000000
    y[2,0,1]  c36       -10000000
    y[2,0,1]  c37       -10000000
    y[2,0,1]  c56       -10000000
    y[2,0,1]  c57       -10000000
    y[2,0,1]  c68       -10000000
    y[2,0,1]  c69       -10000000
    y[2,0,1]  c80       -10000000
    y[2,0,1]  c81       -10000000
    y[2,0,1]  c88       -10000000
    y[2,0,1]  c89       -10000000
    y[2,0,1]  c92       -10000000
    y[2,0,1]  c93       -10000000
    y[2,1,0]  c6        1
    y[2,1,0]  c17       -10000000
    y[2,1,0]  c21       -21
    y[2,1,0]  c38       -10000000
    y[2,1,0]  c39       -10000000
    y[2,1,0]  c58       -10000000
    y[2,1,0]  c59       -10000000
    y[2,1,0]  c70       -10000000
    y[2,1,0]  c71       -10000000
    y[2,1,0]  c82       -10000000
    y[2,1,0]  c83       -10000000
    y[2,1,0]  c86       -10000000
    y[2,1,0]  c87       -10000000
    y[2,1,0]  c90       -10000000
    y[2,1,0]  c91       -10000000
    y[2,1,0]  c108      -480
    y[2,1,1]  c6        1
    y[2,1,1]  c18       -10000000
    y[2,1,1]  c21       -35
    y[2,1,1]  c40       -10000000
    y[2,1,1]  c41       -10000000
    y[2,1,1]  c60       -10000000
    y[2,1,1]  c61       -10000000
    y[2,1,1]  c72       -10000000
    y[2,1,1]  c73       -10000000
    y[2,1,1]  c84       -10000000
    y[2,1,1]  c85       -10000000
    y[2,1,1]  c88       -10000000
    y[2,1,1]  c89       -10000000
    y[2,1,1]  c92       -10000000
    y[2,1,1]  c93       -10000000
    y[2,1,1]  c110      -480
    x[0,0,0,0]  OBJ       0
    x[0,0,0,1]  c22       10000000
    x[0,0,0,1]  c23       -10000000
    x[0,0,0,1]  c24       10000000
    x[0,0,0,1]  c25       -10000000
    x[0,0,1,0]  c26       10000000
    x[0,0,1,0]  c27       -10000000
    x[0,0,1,0]  c28       10000000
    x[0,0,1,0]  c29       -10000000
    x[0,0,1,1]  c30       10000000
    x[0,0,1,1]  c31       -10000000
    x[0,0,1,1]  c32       10000000
    x[0,0,1,1]  c33       -10000000
    x[0,0,2,0]  c34       10000000
    x[0,0,2,0]  c35       -10000000
    x[0,0,2,0]  c36       10000000
    x[0,0,2,0]  c37       -10000000
    x[0,0,2,1]  c38       10000000
    x[0,0,2,1]  c39       -10000000
    x[0,0,2,1]  c40       10000000
    x[0,0,2,1]  c41       -10000000
    x[0,1,0,0]  c42       10000000
    x[0,1,0,0]  c43       -10000000
    x[0,1,0,0]  c44       10000000
    x[0,1,0,0]  c45       -10000000
    x[0,1,0,1]  OBJ       0
    x[0,1,1,0]  c46       10000000
    x[0,1,1,0]  c47       -10000000
    x[0,1,1,0]  c48       10000000
    x[0,1,1,0]  c49       -10000000
    x[0,1,1,1]  c50       10000000
    x[0,1,1,1]  c51       -10000000
    x[0,1,1,1]  c52       10000000
    x[0,1,1,1]  c53       -10000000
    x[0,1,2,0]  c54       10000000
    x[0,1,2,0]  c55       -10000000
    x[0,1,2,0]  c56       10000000
    x[0,1,2,0]  c57       -10000000
    x[0,1,2,1]  c58       10000000
    x[0,1,2,1]  c59       -10000000
    x[0,1,2,1]  c60       10000000
    x[0,1,2,1]  c61       -10000000
    x[1,0,0,0]  OBJ       0
    x[1,0,0,1]  OBJ       0
    x[1,0,1,0]  OBJ       0
    x[1,0,1,1]  c62       10000000
    x[1,0,1,1]  c63       -10000000
    x[1,0,1,1]  c64       10000000
    x[1,0,1,1]  c65       -10000000
    x[1,0,2,0]  c66       10000000
    x[1,0,2,0]  c67       -10000000
    x[1,0,2,0]  c68       10000000
    x[1,0,2,0]  c69       -10000000
    x[1,0,2,1]  c70       10000000
    x[1,0,2,1]  c71       -10000000
    x[1,0,2,1]  c72       10000000
    x[1,0,2,1]  c73       -10000000
    x[1,1,0,0]  OBJ       0
    x[1,1,0,1]  OBJ       0
    x[1,1,1,0]  c74       10000000
    x[1,1,1,0]  c75       -10000000
    x[1,1,1,0]  c76       10000000
    x[1,1,1,0]  c77       -10000000
    x[1,1,1,1]  OBJ       0
    x[1,1,2,0]  c78       10000000
    x[1,1,2,0]  c79       -10000000
    x[1,1,2,0]  c80       10000000
    x[1,1,2,0]  c81       -10000000
    x[1,1,2,1]  c82       10000000
    x[1,1,2,1]  c83       -10000000
    x[1,1,2,1]  c84       10000000
    x[1,1,2,1]  c85       -10000000
    x[2,0,0,0]  OBJ       0
    x[2,0,0,1]  OBJ       0
    x[2,0,1,0]  OBJ       0
    x[2,0,1,1]  OBJ       0
    x[2,0,2,0]  OBJ       0
    x[2,0,2,1]  c86       10000000
    x[2,0,2,1]  c87       -10000000
    x[2,0,2,1]  c88       10000000
    x[2,0,2,1]  c89       -10000000
    x[2,1,0,0]  OBJ       0
    x[2,1,0,1]  OBJ       0
    x[2,1,1,0]  OBJ       0
    x[2,1,1,1]  OBJ       0
    x[2,1,2,0]  c90       10000000
    x[2,1,2,0]  c91       -10000000
    x[2,1,2,0]  c92       10000000
    x[2,1,2,0]  c93       -10000000
    x[2,1,2,1]  OBJ       0
    s[0,0,0]  c0        -1
    s[0,0,0]  c7        1
    s[0,0,0]  c19       1
    s[0,0,0]  c22       -1
    s[0,0,0]  c23       1
    s[0,0,0]  c26       -1
    s[0,0,0]  c27       1
    s[0,0,0]  c30       -1
    s[0,0,0]  c31       1
    s[0,0,0]  c34       -1
    s[0,0,0]  c35       1
    s[0,0,0]  c38       -1
    s[0,0,0]  c39       1
    s[0,0,0]  c42       1
    s[0,0,0]  c43       -1
    s[0,0,0]  c94       1
    s[0,0,1]  c0        -1
    s[0,0,1]  c8        1
    s[0,0,1]  c19       1
    s[0,0,1]  c24       -1
    s[0,0,1]  c25       1
    s[0,0,1]  c28       -1
    s[0,0,1]  c29       1
    s[0,0,1]  c32       -1
    s[0,0,1]  c33       1
    s[0,0,1]  c36       -1
    s[0,0,1]  c37       1
    s[0,0,1]  c40       -1
    s[0,0,1]  c41       1
    s[0,0,1]  c44       1
    s[0,0,1]  c45       -1
    s[0,0,1]  c95       1
    s[0,1,0]  c9        1
    s[0,1,0]  c19       -1
    s[0,1,0]  c22       1
    s[0,1,0]  c23       -1
    s[0,1,0]  c42       -1
    s[0,1,0]  c43       1
    s[0,1,0]  c46       -1
    s[0,1,0]  c47       1
    s[0,1,0]  c50       -1
    s[0,1,0]  c51       1
    s[0,1,0]  c54       -1
    s[0,1,0]  c55       1
    s[0,1,0]  c58       -1
    s[0,1,0]  c59       1
    s[0,1,0]  c96       1
    s[0,1,0]  c97       1
    s[0,1,1]  c10       1
    s[0,1,1]  c19       -1
    s[0,1,1]  c24       1
    s[0,1,1]  c25       -1
    s[0,1,1]  c44       -1
    s[0,1,1]  c45       1
    s[0,1,1]  c48       -1
    s[0,1,1]  c49       1
    s[0,1,1]  c52       -1
    s[0,1,1]  c53       1
    s[0,1,1]  c56       -1
    s[0,1,1]  c57       1
    s[0,1,1]  c60       -1
    s[0,1,1]  c61       1
    s[0,1,1]  c98       1
    s[0,1,1]  c99       1
    s[1,0,0]  c0        -1
    s[1,0,0]  c11       1
    s[1,0,0]  c20       1
    s[1,0,0]  c26       1
    s[1,0,0]  c27       -1
    s[1,0,0]  c46       1
    s[1,0,0]  c47       -1
    s[1,0,0]  c62       -1
    s[1,0,0]  c63       1
    s[1,0,0]  c66       -1
    s[1,0,0]  c67       1
    s[1,0,0]  c70       -1
    s[1,0,0]  c71       1
    s[1,0,0]  c74       1
    s[1,0,0]  c75       -1
    s[1,0,0]  c100      1
    s[1,0,1]  c0        -1
    s[1,0,1]  c12       1
    s[1,0,1]  c20       1
    s[1,0,1]  c28       1
    s[1,0,1]  c29       -1
    s[1,0,1]  c48       1
    s[1,0,1]  c49       -1
    s[1,0,1]  c64       -1
    s[1,0,1]  c65       1
    s[1,0,1]  c68       -1
    s[1,0,1]  c69       1
    s[1,0,1]  c72       -1
    s[1,0,1]  c73       1
    s[1,0,1]  c76       1
    s[1,0,1]  c77       -1
    s[1,0,1]  c101      1
    s[1,1,0]  c13       1
    s[1,1,0]  c20       -1
    s[1,1,0]  c30       1
    s[1,1,0]  c31       -1
    s[1,1,0]  c50       1
    s[1,1,0]  c51       -1
    s[1,1,0]  c62       1
    s[1,1,0]  c63       -1
    s[1,1,0]  c74       -1
    s[1,1,0]  c75       1
    s[1,1,0]  c78       -1
    s[1,1,0]  c79       1
    s[1,1,0]  c82       -1
    s[1,1,0]  c83       1
    s[1,1,0]  c102      1
    s[1,1,0]  c103      1
    s[1,1,1]  c14       1
    s[1,1,1]  c20       -1
    s[1,1,1]  c32       1
    s[1,1,1]  c33       -1
    s[1,1,1]  c52       1
    s[1,1,1]  c53       -1
    s[1,1,1]  c64       1
    s[1,1,1]  c65       -1
    s[1,1,1]  c76       -1
    s[1,1,1]  c77       1
    s[1,1,1]  c80       -1
    s[1,1,1]  c81       1
    s[1,1,1]  c84       -1
    s[1,1,1]  c85       1
    s[1,1,1]  c104      1
    s[1,1,1]  c105      1
    s[2,0,0]  c0        -1
    s[2,0,0]  c15       1
    s[2,0,0]  c21       1
    s[2,0,0]  c34       1
    s[2,0,0]  c35       -1
    s[2,0,0]  c54       1
    s[2,0,0]  c55       -1
    s[2,0,0]  c66       1
    s[2,0,0]  c67       -1
    s[2,0,0]  c78       1
    s[2,0,0]  c79       -1
    s[2,0,0]  c86       -1
    s[2,0,0]  c87       1
    s[2,0,0]  c90       1
    s[2,0,0]  c91       -1
    s[2,0,0]  c106      1
    s[2,0,1]  c0        -1
    s[2,0,1]  c16       1
    s[2,0,1]  c21       1
    s[2,0,1]  c36       1
    s[2,0,1]  c37       -1
    s[2,0,1]  c56       1
    s[2,0,1]  c57       -1
    s[2,0,1]  c68       1
    s[2,0,1]  c69       -1
    s[2,0,1]  c80       1
    s[2,0,1]  c81       -1
    s[2,0,1]  c88       -1
    s[2,0,1]  c89       1
    s[2,0,1]  c92       1
    s[2,0,1]  c93       -1
    s[2,0,1]  c107      1
    s[2,1,0]  c17       1
    s[2,1,0]  c21       -1
    s[2,1,0]  c38       1
    s[2,1,0]  c39       -1
    s[2,1,0]  c58       1
    s[2,1,0]  c59       -1
    s[2,1,0]  c70       1
    s[2,1,0]  c71       -1
    s[2,1,0]  c82       1
    s[2,1,0]  c83       -1
    s[2,1,0]  c86       1
    s[2,1,0]  c87       -1
    s[2,1,0]  c90       -1
    s[2,1,0]  c91       1
    s[2,1,0]  c108      1
    s[2,1,0]  c109      1
    s[2,1,1]  c18       1
    s[2,1,1]  c21       -1
    s[2,1,1]  c40       1
    s[2,1,1]  c41       -1
    s[2,1,1]  c60       1
    s[2,1,1]  c61       -1
    s[2,1,1]  c72       1
    s[2,1,1]  c73       -1
    s[2,1,1]  c84       1
    s[2,1,1]  c85       -1
    s[2,1,1]  c88       1
    s[2,1,1]  c89       -1
    s[2,1,1]  c92       -1
    s[2,1,1]  c93       1
    s[2,1,1]  c110      1
    s[2,1,1]  c111      1
    Z_FO      OBJ       1
    Z_FO      c0        1
    MARKER    'MARKER'                 'INTEND'
RHS
    RHS1      c1        1
    RHS1      c2        1
    RHS1      c3        1
    RHS1      c4        1
    RHS1      c5        1
    RHS1      c6        1
    RHS1      c22       -19999777
    RHS1      c23       -29999876
    RHS1      c24       -19999745
    RHS1      c25       -29999900
    RHS1      c26       -19999783
    RHS1      c27       -29999904
    RHS1      c28       -19999755
    RHS1      c29       -29999811
    RHS1      c30       -19999830
    RHS1      c31       -29999768
    RHS1      c32       -19999851
    RHS1      c33       -29999891
    RHS1      c34       -19999798
    RHS1      c35       -29999804
    RHS1      c36       -19999869
    RHS1      c37       -29999937
    RHS1      c38       -19999771
    RHS1      c39       -29999901
    RHS1      c40       -19999779
    RHS1      c41       -29999785
    RHS1      c42       -19999876
    RHS1      c43       -29999777
    RHS1      c44       -19999900
    RHS1      c45       -29999745
    RHS1      c46       -19999813
    RHS1      c47       -29999830
    RHS1      c48       -19999784
    RHS1      c49       -29999781
    RHS1      c50       -19999845
    RHS1      c51       -29999801
    RHS1      c52       -19999768
    RHS1      c53       -29999829
    RHS1      c54       -19999772
    RHS1      c55       -29999897
    RHS1      c56       -19999908
    RHS1      c57       -29999937
    RHS1      c58       -19999931
    RHS1      c59       -29999927
    RHS1      c60       -19999700
    RHS1      c61       -29999660
    RHS1      c62       -19999904
    RHS1      c63       -29999676
    RHS1      c64       -19999734
    RHS1      c65       -29999800
    RHS1      c66       -19999938
    RHS1      c67       -29999637
    RHS1      c68       -19999820
    RHS1      c69       -29999699
    RHS1      c70       -19999856
    RHS1      c71       -29999880
    RHS1      c72       -19999811
    RHS1      c73       -29999921
    RHS1      c74       -19999676
    RHS1      c75       -29999904
    RHS1      c76       -19999800
    RHS1      c77       -29999734
    RHS1      c78       -19999786
    RHS1      c79       -29999767
    RHS1      c80       -19999851
    RHS1      c81       -29999783
    RHS1      c82       -19999902
    RHS1      c83       -29999895
    RHS1      c84       -19999887
    RHS1      c85       -29999877
    RHS1      c86       -19999767
    RHS1      c87       -29999895
    RHS1      c88       -19999755
    RHS1      c89       -29999869
    RHS1      c90       -19999895
    RHS1      c91       -29999767
    RHS1      c92       -19999869
    RHS1      c93       -29999755
BOUNDS
 BV BND1      y[0,0,0]
 BV BND1      y[0,0,1]
 BV BND1      y[0,1,0]
 BV BND1      y[0,1,1]
 BV BND1      y[1,0,0]
 BV BND1      y[1,0,1]
 BV BND1      y[1,1,0]
 BV BND1      y[1,1,1]
 BV BND1      y[2,0,0]
 BV BND1      y[2,0,1]
 BV BND1      y[2,1,0]
 BV BND1      y[2,1,1]
 BV BND1      x[0,0,0,0]
 BV BND1      x[0,0,0,1]
 BV BND1      x[0,0,1,0]
 BV BND1      x[0,0,1,1]
 BV BND1      x[0,0,2,0]
 BV BND1      x[0,0,2,1]
 BV BND1      x[0,1,0,0]
 BV BND1      x[0,1,0,1]
 BV BND1      x[0,1,1,0]
 BV BND1      x[0,1,1,1]
 BV BND1      x[0,1,2,0]
 BV BND1      x[0,1,2,1]
 BV BND1      x[1,0,0,0]
 BV BND1      x[1,0,0,1]
 BV BND1      x[1,0,1,0]
 BV BND1      x[1,0,1,1]
 BV BND1      x[1,0,2,0]
 BV BND1      x[1,0,2,1]
 BV BND1      x[1,1,0,0]
 BV BND1      x[1,1,0,1]
 BV BND1      x[1,1,1,0]
 BV BND1      x[1,1,1,1]
 BV BND1      x[1,1,2,0]
 BV BND1      x[1,1,2,1]
 BV BND1      x[2,0,0,0]
 BV BND1      x[2,0,0,1]
 BV BND1      x[2,0,1,0]
 BV BND1      x[2,0,1,1]
 BV BND1      x[2,0,2,0]
 BV BND1      x[2,0,2,1]
 BV BND1      x[2,1,0,0]
 BV BND1      x[2,1,0,1]
 BV BND1      x[2,1,1,0]
 BV BND1      x[2,1,1,1]
 BV BND1      x[2,1,2,0]
 BV BND1      x[2,1,2,1]
 LI BND1      s[0,0,0]  0
 LI BND1      s[0,0,1]  0
 LI BND1      s[0,1,0]  0
 LI BND1      s[0,1,1]  0
 LI BND1      s[1,0,0]  0
 LI BND1      s[1,0,1]  0
 LI BND1      s[1,1,0]  0
 LI BND1      s[1,1,1]  0
 LI BND1      s[2,0,0]  0
 LI BND1      s[2,0,1]  0
 LI BND1      s[2,1,0]  0
 LI BND1      s[2,1,1]  0
 LI BND1      Z_FO      0
ENDATA
